

*************************************************************

   NEOS Server Version 6.0
   Job#     : 18284209
   Password : ZseUOtvL
   User     : 
   Solver   : milp:Gurobi:AMPL
   Start    : 2026-01-26 08:08:24
   End      : 2026-01-26 08:09:41
   Host     : prod-sub-1.neos-server.org

   Disclaimer:

   This information is provided without any express or
   implied warranty. In particular, there is no warranty
   of any kind concerning the fitness of this
   information for any particular purpose.

   Announcements:
*************************************************************
You are using the solver gurobi_ampl.
Checking ampl.mod for gurobi_options...
Checking ampl.com for gurobi_options...
Executing AMPL.
processing data.
processing commands.
Executing on prod-exec-1.neos-server.org
N = 450


"option presolve 0;" used, but "option presolve 10;" might work better.
450 variables, all binary
101025 constraints, all linear; 202050 nonzeros
	101025 inequality constraints
1 linear objective; 450 nonzeros.

Gurobi 12.0.3:   tech:threads = 4
  pre:solve = 2
  alg:iisfind = 1
Set parameter LogToConsole to value 1
  tech:outlev = 1

AMPL MP initial flat model has 450 variables (0 integer, 450 binary);
Objectives: 1 linear; 
Constraints:  101025 linear;

AMPL MP final model has 450 variables (0 integer, 450 binary);
Objectives: 1 linear; 
Constraints:  101025 linear;


Set parameter InfUnbdInfo to value 1
Gurobi Optimizer version 12.0.3 build v12.0.3rc0 (linux64 - "Rocky Linux 8.10 (Green Obsidian)")

CPU model: Intel(R) Xeon(R) CPU E5-2698 v3 @ 2.30GHz, instruction set [SSE2|AVX|AVX2]
Thread count: 32 physical cores, 64 logical processors, using up to 4 threads

Non-default parameters:
InfUnbdInfo  1
Presolve  2
Threads  4

Optimize a model with 101025 rows, 450 columns and 202050 nonzeros
Model fingerprint: 0x5c369470
Variable types: 0 continuous, 450 integer (0 binary)
Coefficient statistics:
  Matrix range     [1e+00, 1e+00]
  Objective range  [1e+00, 1e+00]
  Bounds range     [1e+00, 1e+00]
  RHS range        [1e+00, 2e+00]
Found heuristic solution: objective 22.0000000
Presolve removed 97422 rows and 0 columns
Presolve time: 0.06s
Presolved: 3603 rows, 450 columns, 15423 nonzeros
Variable types: 0 continuous, 450 integer (450 binary)
Performing another presolve...
Presolve removed 171 rows and 0 columns
Presolve time: 0.36s
Root relaxation presolved: 3432 rows, 450 columns, 21395 nonzeros


Root relaxation: objective 4.924244e+01, 3498 iterations, 1.13 seconds (1.41 work units)

    Nodes    |    Current Node    |     Objective Bounds      |     Work
 Expl Unexpl |  Obj  Depth IntInf | Incumbent    BestBd   Gap | It/Node Time

     0     0   49.24244    0  353   22.00000   49.24244   124%     -    1s
H    0     0                      23.0000000   49.24244   114%     -    2s
     0     0   30.50000    0  135   23.00000   30.50000  32.6%     -    2s
     0     0   30.00000    0  130   23.00000   30.00000  30.4%     -    2s
     0     0   30.00000    0  128   23.00000   30.00000  30.4%     -    2s
     0     0   30.00000    0  129   23.00000   30.00000  30.4%     -    2s
     0     0   30.00000    0  123   23.00000   30.00000  30.4%     -    2s
     0     0   30.00000    0  119   23.00000   30.00000  30.4%     -    2s
H    0     0                      24.0000000   30.00000  25.0%     -    2s
     0     0   30.00000    0  110   24.00000   30.00000  25.0%     -    2s
H    0     0                      25.0000000   30.00000  20.0%     -    3s
     0     0   30.00000    0  137   25.00000   30.00000  20.0%     -    3s
H    0     0                      26.0000000   30.00000  15.4%     -    3s
H    0     0                      27.0000000   30.00000  11.1%     -    3s
     0     0   30.00000    0  125   27.00000   30.00000  11.1%     -    3s
     0     0   30.00000    0  123   27.00000   30.00000  11.1%     -    3s
     0     0   30.00000    0  123   27.00000   30.00000  11.1%     -    3s
     0     2   30.00000    0  123   27.00000   30.00000  11.1%     -    3s
   367   234   30.00000   15   72   27.00000   30.00000  11.1%  68.1    5s
  1550   864   29.75000   11  354   27.00000   30.00000  11.1%  52.4   10s
  1572   882   30.00000   14   96   27.00000   30.00000  11.1%  61.8   15s
* 1717   931              44      28.0000000   30.00000  7.14%  64.3   16s
  2923   830   29.00000   37   42   28.00000   30.00000  7.14%  65.4   20s
  5904  1379   29.30000   41   78   28.00000   30.00000  7.14%  70.9   25s
  8557  2351   29.00000   33   62   28.00000   30.00000  7.14%  72.9   30s
 11337  3177     cutoff   36        28.00000   30.00000  7.14%  77.3   35s
 13880  3730     cutoff   52        28.00000   30.00000  7.14%  79.7   40s
 16384  4356   29.00000   35   52   28.00000   30.00000  7.14%  81.1   45s
*17714   369              37      29.0000000   30.00000  3.45%  82.0   47s
 17976    88   29.00000   18  352   29.00000   30.00000  3.45%  82.1   50s
 18031   124   30.00000   32   88   29.00000   30.00000  3.45%  83.1   55s
H18869    68                      30.0000000   30.00000  0.00%  83.4   59s

Cutting planes:
  Gomory: 12
  Clique: 108
  Zero half: 2

Explored 18936 nodes (1591172 simplex iterations) in 59.92 seconds (85.22 work units)
Thread count was 4 (of 64 available processors)

Solution count 9: 30 29 28 ... 22

Optimal solution found (tolerance 1.00e-04)
Best objective 3.000000000000e+01, best bound 3.000000000000e+01, gap 0.0000%
Gurobi 12.0.3: optimal solution; objective 30
1.59117e+06 simplex iterations
18936 branching nodes
clique_size = 30

Vertices in clique
==================
5
19
32
55
74
78
97
114
122
142
159
167
186
206
211
227
242
268
280
294
314
329
336
351
364
384
400
411
426
447

NEOS Server Home

